lattice_vector     6.605500     0.000000     0.000000 
lattice_vector     0.000000    11.714000     0.000000 
lattice_vector     0.000000     0.000000    20.737800 


atom     1.150470     1.511790    12.715500  P
atom     5.412860    11.191500     7.372430  P
atom     4.372120     7.664500    13.213600  P
atom     2.746870     5.194390     7.483090  P
atom     4.109230     1.856690     2.439960  P
atom     2.646080    10.312600    18.290200  P
atom     1.309800     7.464620     2.988680  P
atom     0.276073     4.862460    18.115400  P
atom     1.443870     4.112900     6.555290  S
atom     5.335330     9.013500    14.452600  S
atom     4.362100     5.632170     6.264930  S
atom     3.852250     5.778890    14.051500  S
atom     3.551550     4.057470     9.105990  S
atom     2.634060     8.692250    12.383700  S
atom     1.987780     7.023340     8.493800  S
atom     5.696160     7.173550    11.461000  S
atom     1.719710     9.727500    16.484800  S
atom     4.862240     3.081380     3.890680  S
atom     4.286670    11.571800    17.768800  S
atom     2.218920     1.152500     3.183300  S
atom     3.420850     8.703220    19.284400  S
atom     3.869590     3.102960     0.827714  S
atom     1.455620    11.670600    19.458100  S
atom     5.183810     0.143227     1.784070  S
atom     1.594100     4.229230    19.527800  S
atom     6.472240     8.110630     1.639350  S
atom     5.291130     6.143680    18.929100  S
atom     1.349440     8.825500     4.588160  S
atom     5.918630     3.349330    17.028600  S
atom     0.548005     5.626380     3.397420  S
atom     1.399000     6.312080    17.088700  S
atom     3.209120     7.581050     2.040630  S
atom     4.358690    11.036400     5.615750  S
atom     2.396990     2.297000    14.259200  S
atom     0.193397     0.957058     7.119520  S
atom     6.131140     0.537408    13.592700  S
atom     6.262390     9.386530     7.938470  S
atom     0.231989     3.121680    11.698800  S
atom     4.088830    11.413100     8.864100  S
atom     2.099580     0.150529    11.417600  S
atom     2.431220     9.703030     7.247760 Na
atom     1.987670     1.921990     9.454310 Na
atom     5.450410    10.629600    19.946700 Na
atom     5.811050     8.165510    17.044600 Na
atom     3.194940     2.038460    18.796600 Na
atom     3.605990     4.790770    17.339500 Na
atom     3.461940     2.105700     6.291280 Na
atom     6.184710     4.752440     8.761470 Na
atom     3.524640    11.239500    14.486200 Na
atom     2.879330     4.820740     4.096010 Na
atom     1.040890     7.132120    19.878300 Na
atom     4.235200     9.066750     9.972130 Na
atom     2.261330    10.319100     1.690320 Na
atom     5.026680     8.987490     3.945030 Na
atom     1.178170     7.164700    14.183800 Na
atom     2.720970     5.976350    11.159700 Na
atom     0.770508     2.724960     1.119960 Na
atom     5.250680     3.343620    14.399400 Na
atom     4.644070     1.402020    11.070600 Na
atom    -0.080621     0.248116     4.174950 Na
atom     0.332993     0.624329    16.732900 Na
atom     5.114340     5.619010     1.321880 Na
atom    -0.057211     9.902390    12.061600 Na
atom     0.291824     6.884910     6.369680 Na
